StudentsNr = 10;
InstructorsNr = 30;
DaysNr = 2;
SlotsPerDay = 10;
AvailabilitySlotsLenght = 10;
RoomNr = 1;
ProgrammNr = 2;
DegreeNr = 2;
RolesNr = 2;
CoursesNr = 3;
InstructorsProgramm = [{2}, {2}, {1}, {1}, {2}, {1, 2}, {1}, {1, 2}, {1, 2}, {1, 2}, {1, 2}, {1, 2}, {2}, {1, 2}, {1}, {1}, {2}, {1, 2}, {1}, {1}, {2}, {1, 2}, {1}, {1}, {2}, {1}, {1, 2}, {2}, {1, 2}, {2}];
InstructorRolesPerProgramm = [|{3, 4, 8, 22, 23, 24, 27}, {6, 7, 10, 11, 12, 18, 20, 22, 29}|{1, 2, 8, 13, 22, 27}, {2, 6, 10, 11, 12, 13, 17, 18, 22, 25, 28, 29, 30}|];
InstructorsAvailability = [|1, 1, |1, 1, |1, 1, |0, 1, |0, 1, |1, 1, |0, 0, |0, 0, |0, 1, |0, 1, |1, 1, |0, 1, |1, 1, |0, 0, |0, 1, |1, 1, |1, 1, |0, 1, |0, 0, |1, 1, |1, 1, |1, 1, |0, 1, |1, 1, |0, 1, |1, 1, |1, 1, |0, 0, |1, 1, |0, 1|];
StudentsProgramm = [1, 2, 1, 1, 1, 1, 2, 1, 2, 2];
StudentsDegree = [1, 2, 2, 1, 1, 2, 1, 2, 2, 1];
StudentsSupervisorId = [4, 25, 6, 11, 7, 9, 13, 14, 6, 25];
StudentsCourseIds = [{1, 2, 3}, {}, {}, {1, 2, 3}, {1, 2, 3}, {}, {1, 2, 3}, {}, {}, {1, 2, 3}];
StudentsAvailability = [|0, 0, |0, 0, |1, 1, |1, 1, |0, 1, |0, 0, |0, 0, |0, 0, |1, 1, |1, 1|];
TheoryticalMinCard = [1, 0, 0, 1, 1, 1, 0, 1, 0, 0];
CoursesInstructorIds = [{4, 7, 10, 11, 14, 15, 20, 22, 23, 24, 25}, {30}, {2, 8, 9, 11, 12, 17, 18, 21, 23, 25, 28, 29, 30}];
RolesDemands = [3, 7];
RolesContinuity = [2];
ExamLen = [1, 1, 1, 1, 1, 1, 1, 1, 1, 1];
LunchTsMinLen = 1;
LunchStarts = [5..7, 13..17];
SupervisorAvailable = 0;
OptimalLunchLenght = [1, 1];
OptimalStartTs = [0, 0];
OptimalFinishTs = [2, 10];
MinimizeRooms = 500;
RolesSoftContinuity = [|1, 2|1, 2|];
SameDegreeInRoom = 0;
Mergeability = 0;
